angiejc.lp
\ Model JSuperPoly
\ LP format - for model browsing. Use MPS format to capture full model detail.
Minimize
 
Subject To
 R0: - RK^0_0 + a^1_0 = 0
 R1: - u^0_0 + a^1_0 = 0
 R2: - u^0_16 + b^1_0 >= 0
 R3: b^1_0 - i^1_0 >= 0
 R4: - u^0_16 + b^1_0 - i^1_0 >= 0
 R5: - a^1_0 + c^1_0 >= 0
 R6: - b^1_0 + c^1_0 >= 0
 R7: - a^1_0 - b^1_0 + c^1_0 >= 0
 R8: - c^1_1 + d^1_0 = 0
 R9: - c^1_2 + d^1_0 = 0
 R10: - c^1_0 + e^1_0 >= 0
 R11: e^1_0 - d^1_0 >= 0
 R12: - c^1_0 + e^1_0 - d^1_0 >= 0
 R13: f^1_0 - e^1_3 >= 0
 R14: f^1_0 - e^1_9 >= 0
 R15: f^1_0 - e^1_14 >= 0
 R16: f^1_0 - e^1_3 - e^1_9 - e^1_14 >= 0
 R17: - f^1_0 + g^1_0 = 0
 R18: - RK^0_0 + g^1_0 = 0
 R19: - g^1_0 + L^1_0 >= 0
 R20: - u^0_16 + L^1_0 >= 0
 R21: - u^0_16 - g^1_0 + L^1_0 >= 0
 R22: - f^1_0 + R^1_0 >= 0
 R23: - u^0_0 + R^1_0 >= 0
 R24: - u^0_0 - f^1_0 + R^1_0 >= 0
 R25: - RK^0_1 + a^1_1 = 0
 R26: - u^0_1 + a^1_1 = 0
 R27: - u^0_17 + b^1_1 >= 0
 R28: b^1_1 - i^1_1 >= 0
 R29: - u^0_17 + b^1_1 - i^1_1 >= 0
 R30: - a^1_1 + c^1_1 >= 0
 R31: - b^1_1 + c^1_1 >= 0
 R32: - a^1_1 - b^1_1 + c^1_1 >= 0
 R33: - c^1_2 + d^1_1 = 0
 R34: - c^1_3 + d^1_1 = 0
 R35: - c^1_1 + e^1_1 >= 0
 R36: e^1_1 - d^1_1 >= 0
 R37: - c^1_1 + e^1_1 - d^1_1 >= 0
 R38: f^1_1 - e^1_4 >= 0
 R39: f^1_1 - e^1_10 >= 0
 R40: f^1_1 - e^1_15 >= 0
 R41: f^1_1 - e^1_4 - e^1_10 - e^1_15 >= 0
 R42: - f^1_1 + g^1_1 = 0
 R43: - RK^0_1 + g^1_1 = 0
 R44: - g^1_1 + L^1_1 >= 0
 R45: - u^0_17 + L^1_1 >= 0
 R46: - u^0_17 - g^1_1 + L^1_1 >= 0
 R47: - f^1_1 + R^1_1 >= 0
 R48: - u^0_1 + R^1_1 >= 0
 R49: - u^0_1 - f^1_1 + R^1_1 >= 0
 R50: - RK^0_2 + a^1_2 = 0
 R51: - u^0_2 + a^1_2 = 0
 R52: - u^0_18 + b^1_2 >= 0
 R53: b^1_2 - i^1_2 >= 0
 R54: - u^0_18 + b^1_2 - i^1_2 >= 0
 R55: - a^1_2 + c^1_2 >= 0
 R56: - b^1_2 + c^1_2 >= 0
 R57: - a^1_2 - b^1_2 + c^1_2 >= 0
 R58: - c^1_3 + d^1_2 = 0
 R59: - c^1_4 + d^1_2 = 0
 R60: - c^1_2 + e^1_2 >= 0
 R61: e^1_2 - d^1_2 >= 0
 R62: - c^1_2 + e^1_2 - d^1_2 >= 0
 R63: f^1_2 - e^1_5 >= 0
 R64: f^1_2 - e^1_11 >= 0
 R65: - e^1_0 + f^1_2 >= 0
 R66: - e^1_0 + f^1_2 - e^1_5 - e^1_11 >= 0
 R67: - f^1_2 + g^1_2 = 0
 R68: - RK^0_2 + g^1_2 = 0
 R69: - g^1_2 + L^1_2 >= 0
 R70: - u^0_18 + L^1_2 >= 0
 R71: - u^0_18 - g^1_2 + L^1_2 >= 0
 R72: - f^1_2 + R^1_2 >= 0
 R73: - u^0_2 + R^1_2 >= 0
 R74: - u^0_2 - f^1_2 + R^1_2 >= 0
 R75: - RK^0_3 + a^1_3 = 0
 R76: - u^0_3 + a^1_3 = 0
 R77: - u^0_19 + b^1_3 >= 0
 R78: b^1_3 - i^1_3 >= 0
 R79: - u^0_19 + b^1_3 - i^1_3 >= 0
 R80: - a^1_3 + c^1_3 >= 0
 R81: - b^1_3 + c^1_3 >= 0
 R82: - a^1_3 - b^1_3 + c^1_3 >= 0
 R83: - c^1_4 + d^1_3 = 0
 R84: - c^1_5 + d^1_3 = 0
 R85: - c^1_3 + e^1_3 >= 0
 R86: e^1_3 - d^1_3 >= 0
 R87: - c^1_3 + e^1_3 - d^1_3 >= 0
 R88: f^1_3 - e^1_6 >= 0
 R89: f^1_3 - e^1_12 >= 0
 R90: - e^1_1 + f^1_3 >= 0
 R91: - e^1_1 + f^1_3 - e^1_6 - e^1_12 >= 0
 R92: - f^1_3 + g^1_3 = 0
 R93: - RK^0_3 + g^1_3 = 0
 R94: - g^1_3 + L^1_3 >= 0
 R95: - u^0_19 + L^1_3 >= 0
 R96: - u^0_19 - g^1_3 + L^1_3 >= 0
 R97: - f^1_3 + R^1_3 >= 0
 R98: - u^0_3 + R^1_3 >= 0
 R99: - u^0_3 - f^1_3 + R^1_3 >= 0
 R100: - RK^0_4 + a^1_4 = 0
 R101: - u^0_4 + a^1_4 = 0
 R102: - u^0_20 + b^1_4 >= 0
 R103: b^1_4 - i^1_4 >= 0
 R104: - u^0_20 + b^1_4 - i^1_4 >= 0
 R105: - a^1_4 + c^1_4 >= 0
 R106: - b^1_4 + c^1_4 >= 0
 R107: - a^1_4 - b^1_4 + c^1_4 >= 0
 R108: - c^1_5 + d^1_4 = 0
 R109: - c^1_6 + d^1_4 = 0
 R110: - c^1_4 + e^1_4 >= 0
 R111: e^1_4 - d^1_4 >= 0
 R112: - c^1_4 + e^1_4 - d^1_4 >= 0
 R113: f^1_4 - e^1_7 >= 0
 R114: f^1_4 - e^1_13 >= 0
 R115: - e^1_2 + f^1_4 >= 0
 R116: - e^1_2 + f^1_4 - e^1_7 - e^1_13 >= 0
 R117: - f^1_4 + g^1_4 = 0
 R118: - RK^0_4 + g^1_4 = 0
 R119: - g^1_4 + L^1_4 >= 0
 R120: - u^0_20 + L^1_4 >= 0
 R121: - u^0_20 - g^1_4 + L^1_4 >= 0
 R122: - f^1_4 + R^1_4 >= 0
 R123: - u^0_4 + R^1_4 >= 0
 R124: - u^0_4 - f^1_4 + R^1_4 >= 0
 R125: - RK^0_5 + a^1_5 = 0
 R126: - u^0_5 + a^1_5 = 0
 R127: - u^0_21 + b^1_5 >= 0
 R128: b^1_5 - i^1_5 >= 0
 R129: - u^0_21 + b^1_5 - i^1_5 >= 0
 R130: - a^1_5 + c^1_5 >= 0
 R131: - b^1_5 + c^1_5 >= 0
 R132: - a^1_5 - b^1_5 + c^1_5 >= 0
 R133: - c^1_6 + d^1_5 = 0
 R134: - c^1_7 + d^1_5 = 0
 R135: - c^1_5 + e^1_5 >= 0
 R136: e^1_5 - d^1_5 >= 0
 R137: - c^1_5 + e^1_5 - d^1_5 >= 0
 R138: f^1_5 - e^1_8 >= 0
 R139: f^1_5 - e^1_14 >= 0
 R140: - e^1_3 + f^1_5 >= 0
 R141: - e^1_3 + f^1_5 - e^1_8 - e^1_14 >= 0
 R142: - f^1_5 + g^1_5 = 0
 R143: - RK^0_5 + g^1_5 = 0
 R144: - g^1_5 + L^1_5 >= 0
 R145: - u^0_21 + L^1_5 >= 0
 R146: - u^0_21 - g^1_5 + L^1_5 >= 0
 R147: - f^1_5 + R^1_5 >= 0
 R148: - u^0_5 + R^1_5 >= 0
 R149: - u^0_5 - f^1_5 + R^1_5 >= 0
 R150: - RK^0_6 + a^1_6 = 0
 R151: - u^0_6 + a^1_6 = 0
 R152: - u^0_22 + b^1_6 >= 0
 R153: b^1_6 - i^1_6 >= 0
 R154: - u^0_22 + b^1_6 - i^1_6 >= 0
 R155: - a^1_6 + c^1_6 >= 0
 R156: - b^1_6 + c^1_6 >= 0
 R157: - a^1_6 - b^1_6 + c^1_6 >= 0
 R158: - c^1_7 + d^1_6 = 0
 R159: - c^1_8 + d^1_6 = 0
 R160: - c^1_6 + e^1_6 >= 0
 R161: e^1_6 - d^1_6 >= 0
 R162: - c^1_6 + e^1_6 - d^1_6 >= 0
 R163: f^1_6 - e^1_9 >= 0
 R164: f^1_6 - e^1_15 >= 0
 R165: - e^1_4 + f^1_6 >= 0
 R166: - e^1_4 + f^1_6 - e^1_9 - e^1_15 >= 0
 R167: - f^1_6 + g^1_6 = 0
 R168: - RK^0_6 + g^1_6 = 0
 R169: - g^1_6 + L^1_6 >= 0
 R170: - u^0_22 + L^1_6 >= 0
 R171: - u^0_22 - g^1_6 + L^1_6 >= 0
 R172: - f^1_6 + R^1_6 >= 0
 R173: - u^0_6 + R^1_6 >= 0
 R174: - u^0_6 - f^1_6 + R^1_6 >= 0
 R175: - RK^0_7 + a^1_7 = 0
 R176: - u^0_7 + a^1_7 = 0
 R177: - u^0_23 + b^1_7 >= 0
 R178: b^1_7 - i^1_7 >= 0
 R179: - u^0_23 + b^1_7 - i^1_7 >= 0
 R180: - a^1_7 + c^1_7 >= 0
 R181: - b^1_7 + c^1_7 >= 0
 R182: - a^1_7 - b^1_7 + c^1_7 >= 0
 R183: - c^1_8 + d^1_7 = 0
 R184: - c^1_9 + d^1_7 = 0
 R185: - c^1_7 + e^1_7 >= 0
 R186: e^1_7 - d^1_7 >= 0
 R187: - c^1_7 + e^1_7 - d^1_7 >= 0
 R188: f^1_7 - e^1_10 >= 0
 R189: - e^1_0 + f^1_7 >= 0
 R190: - e^1_5 + f^1_7 >= 0
 R191: - e^1_0 - e^1_5 + f^1_7 - e^1_10 >= 0
 R192: - f^1_7 + g^1_7 = 0
 R193: - RK^0_7 + g^1_7 = 0
 R194: - g^1_7 + L^1_7 >= 0
 R195: - u^0_23 + L^1_7 >= 0
 R196: - u^0_23 - g^1_7 + L^1_7 >= 0
 R197: - f^1_7 + R^1_7 >= 0
 R198: - u^0_7 + R^1_7 >= 0
 R199: - u^0_7 - f^1_7 + R^1_7 >= 0
 R200: - RK^0_8 + a^1_8 = 0
 R201: - u^0_8 + a^1_8 = 0
 R202: - u^0_24 + b^1_8 >= 0
 R203: b^1_8 - i^1_8 >= 0
 R204: - u^0_24 + b^1_8 - i^1_8 >= 0
 R205: - a^1_8 + c^1_8 >= 0
 R206: - b^1_8 + c^1_8 >= 0
 R207: - a^1_8 - b^1_8 + c^1_8 >= 0
 R208: - c^1_9 + d^1_8 = 0
 R209: - c^1_10 + d^1_8 = 0
 R210: - c^1_8 + e^1_8 >= 0
 R211: e^1_8 - d^1_8 >= 0
 R212: - c^1_8 + e^1_8 - d^1_8 >= 0
 R213: f^1_8 - e^1_11 >= 0
 R214: - e^1_1 + f^1_8 >= 0
 R215: - e^1_6 + f^1_8 >= 0
 R216: - e^1_1 - e^1_6 + f^1_8 - e^1_11 >= 0
 R217: - f^1_8 + g^1_8 = 0
 R218: - RK^0_8 + g^1_8 = 0
 R219: - g^1_8 + L^1_8 >= 0
 R220: - u^0_24 + L^1_8 >= 0
 R221: - u^0_24 - g^1_8 + L^1_8 >= 0
 R222: - f^1_8 + R^1_8 >= 0
 R223: - u^0_8 + R^1_8 >= 0
 R224: - u^0_8 - f^1_8 + R^1_8 >= 0
 R225: - RK^0_9 + a^1_9 = 0
 R226: - u^0_9 + a^1_9 = 0
 R227: - u^0_25 + b^1_9 >= 0
 R228: b^1_9 - i^1_9 >= 0
 R229: - u^0_25 + b^1_9 - i^1_9 >= 0
 R230: - a^1_9 + c^1_9 >= 0
 R231: - b^1_9 + c^1_9 >= 0
 R232: - a^1_9 - b^1_9 + c^1_9 >= 0
 R233: - c^1_10 + d^1_9 = 0
 R234: - c^1_11 + d^1_9 = 0
 R235: - c^1_9 + e^1_9 >= 0
 R236: e^1_9 - d^1_9 >= 0
 R237: - c^1_9 + e^1_9 - d^1_9 >= 0
 R238: f^1_9 - e^1_12 >= 0
 R239: - e^1_2 + f^1_9 >= 0
 R240: - e^1_7 + f^1_9 >= 0
 R241: - e^1_2 - e^1_7 + f^1_9 - e^1_12 >= 0
 R242: - f^1_9 + g^1_9 = 0
 R243: - RK^0_9 + g^1_9 = 0
 R244: - g^1_9 + L^1_9 >= 0
 R245: - u^0_25 + L^1_9 >= 0
 R246: - u^0_25 - g^1_9 + L^1_9 >= 0
 R247: - f^1_9 + R^1_9 >= 0
 R248: - u^0_9 + R^1_9 >= 0
 R249: - u^0_9 - f^1_9 + R^1_9 >= 0
 R250: - RK^0_10 + a^1_10 = 0
 R251: - u^0_10 + a^1_10 = 0
 R252: - u^0_26 + b^1_10 >= 0
 R253: b^1_10 - i^1_10 >= 0
 R254: - u^0_26 + b^1_10 - i^1_10 >= 0
 R255: - a^1_10 + c^1_10 >= 0
 R256: - b^1_10 + c^1_10 >= 0
 R257: - a^1_10 - b^1_10 + c^1_10 >= 0
 R258: - c^1_11 + d^1_10 = 0
 R259: - c^1_12 + d^1_10 = 0
 R260: - c^1_10 + e^1_10 >= 0
 R261: e^1_10 - d^1_10 >= 0
 R262: - c^1_10 + e^1_10 - d^1_10 >= 0
 R263: f^1_10 - e^1_13 >= 0
 R264: - e^1_3 + f^1_10 >= 0
 R265: - e^1_8 + f^1_10 >= 0
 R266: - e^1_3 - e^1_8 + f^1_10 - e^1_13 >= 0
 R267: - f^1_10 + g^1_10 = 0
 R268: - RK^0_10 + g^1_10 = 0
 R269: - g^1_10 + L^1_10 >= 0
 R270: - u^0_26 + L^1_10 >= 0
 R271: - u^0_26 - g^1_10 + L^1_10 >= 0
 R272: - f^1_10 + R^1_10 >= 0
 R273: - u^0_10 + R^1_10 >= 0
 R274: - u^0_10 - f^1_10 + R^1_10 >= 0
 R275: - RK^0_11 + a^1_11 = 0
 R276: - u^0_11 + a^1_11 = 0
 R277: - u^0_27 + b^1_11 >= 0
 R278: b^1_11 - i^1_11 >= 0
 R279: - u^0_27 + b^1_11 - i^1_11 >= 0
 R280: - a^1_11 + c^1_11 >= 0
 R281: - b^1_11 + c^1_11 >= 0
 R282: - a^1_11 - b^1_11 + c^1_11 >= 0
 R283: - c^1_12 + d^1_11 = 0
 R284: - c^1_13 + d^1_11 = 0
 R285: - c^1_11 + e^1_11 >= 0
 R286: e^1_11 - d^1_11 >= 0
 R287: - c^1_11 + e^1_11 - d^1_11 >= 0
 R288: f^1_11 - e^1_14 >= 0
 R289: - e^1_4 + f^1_11 >= 0
 R290: - e^1_9 + f^1_11 >= 0
 R291: - e^1_4 - e^1_9 + f^1_11 - e^1_14 >= 0
 R292: - f^1_11 + g^1_11 = 0
 R293: - RK^0_11 + g^1_11 = 0
 R294: - g^1_11 + L^1_11 >= 0
 R295: - u^0_27 + L^1_11 >= 0
 R296: - u^0_27 - g^1_11 + L^1_11 >= 0
 R297: - f^1_11 + R^1_11 >= 0
 R298: - u^0_11 + R^1_11 >= 0
 R299: - u^0_11 - f^1_11 + R^1_11 >= 0
 R300: - RK^0_12 + a^1_12 = 0
 R301: - u^0_12 + a^1_12 = 0
 R302: - u^0_28 + b^1_12 >= 0
 R303: b^1_12 - i^1_12 >= 0
 R304: - u^0_28 + b^1_12 - i^1_12 >= 0
 R305: - a^1_12 + c^1_12 >= 0
 R306: - b^1_12 + c^1_12 >= 0
 R307: - a^1_12 - b^1_12 + c^1_12 >= 0
 R308: - c^1_13 + d^1_12 = 0
 R309: - c^1_14 + d^1_12 = 0
 R310: - c^1_12 + e^1_12 >= 0
 R311: e^1_12 - d^1_12 >= 0
 R312: - c^1_12 + e^1_12 - d^1_12 >= 0
 R313: f^1_12 - e^1_15 >= 0
 R314: - e^1_5 + f^1_12 >= 0
 R315: - e^1_10 + f^1_12 >= 0
 R316: - e^1_5 - e^1_10 + f^1_12 - e^1_15 >= 0
 R317: - f^1_12 + g^1_12 = 0
 R318: - RK^0_12 + g^1_12 = 0
 R319: - g^1_12 + L^1_12 >= 0
 R320: - u^0_28 + L^1_12 >= 0
 R321: - u^0_28 - g^1_12 + L^1_12 >= 0
 R322: - f^1_12 + R^1_12 >= 0
 R323: - u^0_12 + R^1_12 >= 0
 R324: - u^0_12 - f^1_12 + R^1_12 >= 0
 R325: - RK^0_13 + a^1_13 = 0
 R326: - u^0_13 + a^1_13 = 0
 R327: - u^0_29 + b^1_13 >= 0
 R328: b^1_13 - i^1_13 >= 0
 R329: - u^0_29 + b^1_13 - i^1_13 >= 0
 R330: - a^1_13 + c^1_13 >= 0
 R331: - b^1_13 + c^1_13 >= 0
 R332: - a^1_13 - b^1_13 + c^1_13 >= 0
 R333: - c^1_14 + d^1_13 = 0
 R334: - c^1_15 + d^1_13 = 0
 R335: - c^1_13 + e^1_13 >= 0
 R336: e^1_13 - d^1_13 >= 0
 R337: - c^1_13 + e^1_13 - d^1_13 >= 0
 R338: - e^1_0 + f^1_13 >= 0
 R339: - e^1_6 + f^1_13 >= 0
 R340: - e^1_11 + f^1_13 >= 0
 R341: - e^1_0 - e^1_6 - e^1_11 + f^1_13 >= 0
 R342: - f^1_13 + g^1_13 = 0
 R343: - RK^0_13 + g^1_13 = 0
 R344: - g^1_13 + L^1_13 >= 0
 R345: - u^0_29 + L^1_13 >= 0
 R346: - u^0_29 - g^1_13 + L^1_13 >= 0
 R347: - f^1_13 + R^1_13 >= 0
 R348: - u^0_13 + R^1_13 >= 0
 R349: - u^0_13 - f^1_13 + R^1_13 >= 0
 R350: - RK^0_14 + a^1_14 = 0
 R351: - u^0_14 + a^1_14 = 0
 R352: - u^0_30 + b^1_14 >= 0
 R353: b^1_14 - i^1_14 >= 0
 R354: - u^0_30 + b^1_14 - i^1_14 >= 0
 R355: - a^1_14 + c^1_14 >= 0
 R356: - b^1_14 + c^1_14 >= 0
 R357: - a^1_14 - b^1_14 + c^1_14 >= 0
 R358: - c^1_14 + e^1_14 = 0
 R359: - e^1_1 + f^1_14 >= 0
 R360: - e^1_7 + f^1_14 >= 0
 R361: - e^1_12 + f^1_14 >= 0
 R362: - e^1_1 - e^1_7 - e^1_12 + f^1_14 >= 0
 R363: - f^1_14 + g^1_14 = 0
 R364: - RK^0_14 + g^1_14 = 0
 R365: - g^1_14 + L^1_14 >= 0
 R366: - u^0_30 + L^1_14 >= 0
 R367: - u^0_30 - g^1_14 + L^1_14 >= 0
 R368: - f^1_14 + R^1_14 >= 0
 R369: - u^0_14 + R^1_14 >= 0
 R370: - u^0_14 - f^1_14 + R^1_14 >= 0
 R371: - RK^0_15 + a^1_15 = 0
 R372: - u^0_15 + a^1_15 = 0
 R373: - u^0_31 + b^1_15 >= 0
 R374: b^1_15 - i^1_15 >= 0
 R375: - u^0_31 + b^1_15 - i^1_15 >= 0
 R376: - a^1_15 + c^1_15 >= 0
 R377: - b^1_15 + c^1_15 >= 0
 R378: - a^1_15 - b^1_15 + c^1_15 >= 0
 R379: - c^1_15 + e^1_15 = 0
 R380: - e^1_2 + f^1_15 >= 0
 R381: - e^1_8 + f^1_15 >= 0
 R382: - e^1_13 + f^1_15 >= 0
 R383: - e^1_2 - e^1_8 - e^1_13 + f^1_15 >= 0
 R384: - f^1_15 + g^1_15 = 0
 R385: - RK^0_15 + g^1_15 = 0
 R386: - g^1_15 + L^1_15 >= 0
 R387: - u^0_31 + L^1_15 >= 0
 R388: - u^0_31 - g^1_15 + L^1_15 >= 0
 R389: - f^1_15 + R^1_15 >= 0
 R390: - u^0_15 + R^1_15 >= 0
 R391: - u^0_15 - f^1_15 + R^1_15 >= 0
Bounds
Binaries
 u^0_0 u^0_1 u^0_2 u^0_3 u^0_4 u^0_5 u^0_6 u^0_7 u^0_8 u^0_9 u^0_10 u^0_11
 u^0_12 u^0_13 u^0_14 u^0_15 u^0_16 u^0_17 u^0_18 u^0_19 u^0_20 u^0_21
 u^0_22 u^0_23 u^0_24 u^0_25 u^0_26 u^0_27 u^0_28 u^0_29 u^0_30 u^0_31
 RK^0_0 a^1_0 b^1_0 i^1_0 c^1_0 e^1_0 f^1_0 g^1_0 L^1_0 R^1_0 RK^0_1 a^1_1
 b^1_1 i^1_1 c^1_1 e^1_1 f^1_1 g^1_1 L^1_1 R^1_1 RK^0_2 a^1_2 b^1_2 i^1_2
 c^1_2 e^1_2 f^1_2 g^1_2 L^1_2 R^1_2 RK^0_3 a^1_3 b^1_3 i^1_3 c^1_3 e^1_3
 f^1_3 g^1_3 L^1_3 R^1_3 RK^0_4 a^1_4 b^1_4 i^1_4 c^1_4 e^1_4 f^1_4 g^1_4
 L^1_4 R^1_4 RK^0_5 a^1_5 b^1_5 i^1_5 c^1_5 e^1_5 f^1_5 g^1_5 L^1_5 R^1_5
 RK^0_6 a^1_6 b^1_6 i^1_6 c^1_6 e^1_6 f^1_6 g^1_6 L^1_6 R^1_6 RK^0_7 a^1_7
 b^1_7 i^1_7 c^1_7 e^1_7 f^1_7 g^1_7 L^1_7 R^1_7 RK^0_8 a^1_8 b^1_8 i^1_8
 c^1_8 e^1_8 f^1_8 g^1_8 L^1_8 R^1_8 RK^0_9 a^1_9 b^1_9 i^1_9 c^1_9 e^1_9
 f^1_9 g^1_9 L^1_9 R^1_9 RK^0_10 a^1_10 b^1_10 i^1_10 c^1_10 e^1_10 f^1_10
 g^1_10 L^1_10 R^1_10 RK^0_11 a^1_11 b^1_11 i^1_11 c^1_11 e^1_11 f^1_11
 g^1_11 L^1_11 R^1_11 RK^0_12 a^1_12 b^1_12 i^1_12 c^1_12 e^1_12 f^1_12
 g^1_12 L^1_12 R^1_12 RK^0_13 a^1_13 b^1_13 i^1_13 c^1_13 e^1_13 f^1_13
 g^1_13 L^1_13 R^1_13 RK^0_14 a^1_14 b^1_14 i^1_14 c^1_14 e^1_14 f^1_14
 g^1_14 L^1_14 R^1_14 RK^0_15 a^1_15 b^1_15 i^1_15 c^1_15 e^1_15 f^1_15
 g^1_15 L^1_15 R^1_15 d^1_0 d^1_1 d^1_2 d^1_3 d^1_4 d^1_5 d^1_6 d^1_7 d^1_8
 d^1_9 d^1_10 d^1_11 d^1_12 d^1_13
End
